
Gurobi 6.5.2 (win64) logging started 07/24/16 17:38:50


Gurobi 6.5.2 (win64) logging started 07/24/16 17:38:50

Optimize a model with 2118 rows, 289 columns and 4828 nonzeros
Coefficient statistics:
  Matrix range    [1e+00, 4e+02]
  Objective range [2e+00, 4e+02]
  Bounds range    [1e+00, 1e+00]
  RHS range       [1e+00, 2e+03]
Presolve removed 1985 rows and 36 columns
Presolve time: 0.02s
Presolved: 133 rows, 253 columns, 1236 nonzeros
Variable types: 0 continuous, 253 integer (253 binary)

Root relaxation: objective 2.438000e+03, 114 iterations, 0.00 seconds

    Nodes    |    Current Node    |     Objective Bounds      |     Work
 Expl Unexpl |  Obj  Depth IntInf | Incumbent    BestBd   Gap | It/Node Time

*    0     0               0    2438.0000000 2438.00000  0.00%     -    0s

Explored 0 nodes (114 simplex iterations) in 0.02 seconds
Thread count was 8 (of 8 available processors)

Optimal solution found (tolerance 1.00e-04)
Best objective 2.438000000000e+03, best bound 2.438000000000e+03, gap 0.0%

Wrote requested result file 'H1\instance22\\Results22SG_Sol5.lp'

